<number of tasks>
50

<cycle time>
1000

<order strength>
0.197


<task times>
1 342
2 215
3 315
4 534
5 359
6 530
7 539
8 353
9 817
10 596
11 492
12 542
13 337
14 574
15 611
16 502
17 250
18 432
19 408
20 641
21 493
22 558
23 531
24 508
25 336
26 506
27 570
28 599
29 494
30 568
31 685
32 711
33 587
34 315
35 363
36 507
37 601
38 638
39 533
40 418
41 545
42 381
43 500
44 339
45 297
46 558
47 601
48 501
49 491
50 513

<precedence relations>
1,6
1,12
2,7
2,10
3,9
3,14
5,8
5,11
5,42
6,16
6,17
7,19
7,33
7,35
8,13
8,15
9,36
10,14
10,18
11,14
11,15
13,26
14,24
14,27
15,20
16,21
16,22
18,25
19,23
21,33
23,30
23,31
23,32
25,29
26,28
26,31
28,35
30,49
31,37
33,34
33,36
34,40
34,42
34,43
35,39
36,38
36,41
39,48
40,47
40,49
42,44
42,45
42,46
42,50

<end>
